[TITLE]
;; cFLOWS experimental local SWMM network. Coincident public-GIS endpoints are snapped into shared hydraulic nodes.
;; Topology is geometry-derived and must not be described as surveyed connectivity.
[OPTIONS]
FLOW_UNITS CMS
INFILTRATION HORTON
FLOW_ROUTING DYNWAVE
START_DATE 12/01/2015
START_TIME 00:00:00
END_DATE 12/03/2015
END_TIME 00:00:00
REPORT_STEP 00:05:00
WET_STEP 00:01:00
ROUTING_STEP 0:00:30
ALLOW_PONDING YES
[RAINGAGES]
RG1 INTENSITY 1:00 1.0 TIMESERIES RAIN
[SUBCATCHMENTS]
S001 RG1 J001 1.500 67.3 40 0.35 0
[SUBAREAS]
S001 0.015 0.22 1.5 4.0 25 OUTLET 100
[INFILTRATION]
S001 48 4 4 7 0
[JUNCTIONS]
J001    4.183  1.50 0 0.30 180
J002    3.980  1.50 0 0.30 180
[OUTFALLS]
O001 3.830 FREE NO
[CONDUITS]
C001    J001    J002    338.3 0.018 0 0 0 0
X001 J002    O001 5.0 0.018 0 0 0 0
[XSECTIONS]
C001    RECT_CLOSED 1.130 1.130 0 0 1
X001 RECT_OPEN 1.20 1.00 0 0 1
[TIMESERIES]
RAIN 12/01/2015 00:00 0.00
RAIN 12/01/2015 01:00 1.00
RAIN 12/01/2015 02:00 0.00
RAIN 12/01/2015 03:00 1.00
RAIN 12/01/2015 04:00 0.00
RAIN 12/01/2015 05:00 0.00
RAIN 12/01/2015 06:00 7.00
RAIN 12/01/2015 07:00 10.00
RAIN 12/01/2015 08:00 2.00
RAIN 12/01/2015 09:00 13.00
RAIN 12/01/2015 10:00 31.10
RAIN 12/01/2015 11:00 8.00
RAIN 12/01/2015 12:00 9.00
RAIN 12/01/2015 13:00 16.10
RAIN 12/01/2015 14:00 9.00
RAIN 12/01/2015 15:00 9.00
RAIN 12/01/2015 16:00 17.10
RAIN 12/01/2015 17:00 4.00
RAIN 12/01/2015 18:00 34.10
RAIN 12/01/2015 19:00 24.10
RAIN 12/01/2015 20:00 12.00
RAIN 12/01/2015 21:00 20.10
RAIN 12/01/2015 22:00 17.10
RAIN 12/01/2015 23:00 10.00
RAIN 12/02/2015 00:00 21.10
RAIN 12/02/2015 01:00 16.10
RAIN 12/02/2015 02:00 10.00
RAIN 12/02/2015 03:00 7.00
RAIN 12/02/2015 04:00 2.00
RAIN 12/02/2015 05:00 2.00
RAIN 12/02/2015 06:00 1.00
RAIN 12/02/2015 07:00 0.00
RAIN 12/02/2015 08:00 1.00
RAIN 12/02/2015 09:00 0.00
RAIN 12/02/2015 10:00 1.00
RAIN 12/02/2015 11:00 0.00
RAIN 12/02/2015 12:00 0.00
RAIN 12/02/2015 13:00 0.00
RAIN 12/02/2015 14:00 3.00
RAIN 12/02/2015 15:00 3.00
RAIN 12/02/2015 16:00 3.00
RAIN 12/02/2015 17:00 2.00
RAIN 12/02/2015 18:00 1.00
RAIN 12/02/2015 19:00 0.00
RAIN 12/02/2015 20:00 0.00
RAIN 12/02/2015 21:00 0.00
RAIN 12/02/2015 22:00 0.00
RAIN 12/02/2015 23:00 0.00
[REPORT]
NODES ALL
LINKS ALL
