[TITLE]
;; cFLOWS experimental local SWMM network. Coincident public-GIS endpoints are snapped into shared hydraulic nodes.
;; Topology is geometry-derived and must not be described as surveyed connectivity.
[OPTIONS]
FLOW_UNITS CMS
INFILTRATION HORTON
FLOW_ROUTING DYNWAVE
START_DATE 12/01/2015
START_TIME 00:00:00
END_DATE 12/03/2015
END_TIME 00:00:00
REPORT_STEP 00:05:00
WET_STEP 00:01:00
ROUTING_STEP 0:00:30
ALLOW_PONDING YES
[RAINGAGES]
RG1 INTENSITY 1:00 1.0 TIMESERIES RAIN
[SUBCATCHMENTS]
S001 RG1 J001 0.654 67.3 40 0.35 0
S002 RG1 J002 0.654 67.3 40 0.35 0
S003 RG1 J003 0.654 67.3 40 0.35 0
[SUBAREAS]
S001 0.015 0.22 1.5 4.0 25 OUTLET 100
S002 0.015 0.22 1.5 4.0 25 OUTLET 100
S003 0.015 0.22 1.5 4.0 25 OUTLET 100
[INFILTRATION]
S001 48 4 4 7 0
S002 48 4 4 7 0
S003 48 4 4 7 0
[JUNCTIONS]
J001    3.580  1.20 0 0.30 180
J002    3.579  1.20 0 0.30 180
J003    4.229  1.20 0 0.30 180
J004    3.577  1.20 0 0.30 180
[OUTFALLS]
O001 3.427 FREE NO
[CONDUITS]
C001    J001    J002    145.3 0.018 0 0 0 0
C002    J002    J003    109.7 0.018 0 0 0 0
C003    J003    J004    101.9 0.018 0 0 0 0
X001 J004    O001 5.0 0.018 0 0 0 0
[XSECTIONS]
C001    RECT_CLOSED 1.01 1.01 0 0 1
C002    RECT_CLOSED 1.01 1.01 0 0 1
C003    RECT_CLOSED 1.09 1.09 0 0 1
X001 RECT_OPEN 1.20 1.00 0 0 1
[TIMESERIES]
RAIN 12/01/2015 00:00 0.00
RAIN 12/01/2015 01:00 1.20
RAIN 12/01/2015 02:00 0.00
RAIN 12/01/2015 03:00 2.30
RAIN 12/01/2015 04:00 0.00
RAIN 12/01/2015 05:00 0.00
RAIN 12/01/2015 06:00 21.00
RAIN 12/01/2015 07:00 18.60
RAIN 12/01/2015 08:00 16.30
RAIN 12/01/2015 09:00 33.80
RAIN 12/01/2015 10:00 17.50
RAIN 12/01/2015 11:00 57.00
RAIN 12/01/2015 12:00 67.50
RAIN 12/01/2015 13:00 24.40
RAIN 12/01/2015 14:00 27.90
RAIN 12/01/2015 15:00 23.30
RAIN 12/01/2015 16:00 32.60
RAIN 12/01/2015 17:00 22.10
RAIN 12/01/2015 18:00 45.40
RAIN 12/01/2015 19:00 31.40
RAIN 12/01/2015 20:00 19.80
RAIN 12/01/2015 21:00 15.10
RAIN 12/01/2015 22:00 11.60
RAIN 12/01/2015 23:00 12.80
RAIN 12/02/2015 00:00 9.30
RAIN 12/02/2015 01:00 3.50
RAIN 12/02/2015 02:00 2.30
RAIN 12/02/2015 03:00 4.70
RAIN 12/02/2015 04:00 4.70
RAIN 12/02/2015 05:00 3.50
RAIN 12/02/2015 06:00 2.30
RAIN 12/02/2015 07:00 1.20
RAIN 12/02/2015 08:00 1.20
RAIN 12/02/2015 09:00 0.00
RAIN 12/02/2015 10:00 0.00
RAIN 12/02/2015 11:00 4.70
RAIN 12/02/2015 12:00 0.00
RAIN 12/02/2015 13:00 0.00
RAIN 12/02/2015 14:00 5.80
RAIN 12/02/2015 15:00 2.30
RAIN 12/02/2015 16:00 5.80
RAIN 12/02/2015 17:00 1.20
RAIN 12/02/2015 18:00 0.00
RAIN 12/02/2015 19:00 0.00
RAIN 12/02/2015 20:00 0.00
RAIN 12/02/2015 21:00 0.00
RAIN 12/02/2015 22:00 0.00
RAIN 12/02/2015 23:00 0.00
[REPORT]
NODES ALL
LINKS ALL
