[TITLE]
;; cFLOWS experimental local SWMM network. Coincident public-GIS endpoints are snapped into shared hydraulic nodes.
;; Topology is geometry-derived and must not be described as surveyed connectivity.
[OPTIONS]
FLOW_UNITS CMS
INFILTRATION HORTON
FLOW_ROUTING DYNWAVE
START_DATE 12/01/2015
START_TIME 00:00:00
END_DATE 12/03/2015
END_TIME 00:00:00
REPORT_STEP 00:05:00
WET_STEP 00:01:00
ROUTING_STEP 0:00:30
ALLOW_PONDING YES
[RAINGAGES]
RG1 INTENSITY 1:00 1.0 TIMESERIES RAIN
[SUBCATCHMENTS]
S001 RG1 J001 0.282 67.3 40 0.35 0
S002 RG1 J002 0.510 67.3 40 0.35 0
S003 RG1 J004 0.120 67.3 40 0.35 0
S004 RG1 J005 0.209 67.3 40 0.35 0
S005 RG1 J004 0.120 67.3 40 0.35 0
S006 RG1 J006 0.210 67.3 40 0.35 0
S007 RG1 J005 0.120 67.3 40 0.35 0
S008 RG1 J007 0.538 67.3 40 0.35 0
S009 RG1 J005 0.120 67.3 40 0.35 0
S010 RG1 J006 0.314 67.3 40 0.35 0
S011 RG1 J006 0.234 67.3 40 0.35 0
S012 RG1 J006 0.597 67.3 40 0.35 0
[SUBAREAS]
S001 0.015 0.22 1.5 4.0 25 OUTLET 100
S002 0.015 0.22 1.5 4.0 25 OUTLET 100
S003 0.015 0.22 1.5 4.0 25 OUTLET 100
S004 0.015 0.22 1.5 4.0 25 OUTLET 100
S005 0.015 0.22 1.5 4.0 25 OUTLET 100
S006 0.015 0.22 1.5 4.0 25 OUTLET 100
S007 0.015 0.22 1.5 4.0 25 OUTLET 100
S008 0.015 0.22 1.5 4.0 25 OUTLET 100
S009 0.015 0.22 1.5 4.0 25 OUTLET 100
S010 0.015 0.22 1.5 4.0 25 OUTLET 100
S011 0.015 0.22 1.5 4.0 25 OUTLET 100
S012 0.015 0.22 1.5 4.0 25 OUTLET 100
[INFILTRATION]
S001 48 4 4 7 0
S002 48 4 4 7 0
S003 48 4 4 7 0
S004 48 4 4 7 0
S005 48 4 4 7 0
S006 48 4 4 7 0
S007 48 4 4 7 0
S008 48 4 4 7 0
S009 48 4 4 7 0
S010 48 4 4 7 0
S011 48 4 4 7 0
S012 48 4 4 7 0
[JUNCTIONS]
J001    4.993  1.58 0 0.30 180
J002    4.907  1.50 0 0.30 180
J003    4.800  1.50 0 0.30 180
J004    4.882  1.58 0 0.30 180
J005    4.665  1.80 0 0.30 180
J006    5.058  1.50 0 0.30 180
J007    5.449  1.50 0 0.30 180
J008    4.501  1.80 0 0.30 180
J009    5.231  1.50 0 0.30 180
J010    4.918  1.50 0 0.30 180
[OUTFALLS]
O001 4.650 FREE NO
O002 4.351 FREE NO
O003 5.081 FREE NO
O004 4.768 FREE NO
[CONDUITS]
C001    J001    J002    51.3 0.018 0 0 0 0
C002    J002    J003    92.8 0.018 0 0 0 0
C003    J004    J001    20.0 0.018 0 0 0 0
C004    J005    J002    38.0 0.018 0 0 0 0
C005    J004    J004    20.0 0.018 0 0 0 0
C006    J006    J005    38.2 0.018 0 0 0 0
C007    J005    J005    20.0 0.018 0 0 0 0
C008    J007    J006    97.9 0.018 0 0 0 0
C009    J005    J008    20.0 0.018 0 0 0 0
C010    J006    J009    57.0 0.018 0 0 0 0
C011    J006    J010    42.5 0.018 0 0 0 0
C012    J006    J003    108.5 0.018 0 0 0 0
X001 J003    O001 5.0 0.018 0 0 0 0
X002 J008    O002 5.0 0.018 0 0 0 0
X003 J009    O003 5.0 0.018 0 0 0 0
X004 J010    O004 5.0 0.018 0 0 0 0
[XSECTIONS]
C001    RECT_CLOSED 0.750 0.750 0 0 1
C002    RECT_CLOSED 0.600 0.600 0 0 1
C003    RECT_CLOSED 1.280 1.280 0 0 1
C004    RECT_CLOSED 0.700 0.700 0 0 1
C005    RECT_CLOSED 1.280 1.280 0 0 1
C006    RECT_CLOSED 0.850 0.850 0 0 1
C007    RECT_CLOSED 1.500 1.500 0 0 1
C008    RECT_CLOSED 0.800 0.800 0 0 1
C009    RECT_CLOSED 1.500 1.500 0 0 1
C010    RECT_CLOSED 0.700 0.700 0 0 1
C011    RECT_CLOSED 0.650 0.650 0 0 1
C012    RECT_CLOSED 0.750 0.750 0 0 1
X001 RECT_OPEN 1.20 1.00 0 0 1
X002 RECT_OPEN 1.20 1.00 0 0 1
X003 RECT_OPEN 1.20 1.00 0 0 1
X004 RECT_OPEN 1.20 1.00 0 0 1
[TIMESERIES]
RAIN 12/01/2015 00:00 0.00
RAIN 12/01/2015 01:00 1.00
RAIN 12/01/2015 02:00 0.00
RAIN 12/01/2015 03:00 1.00
RAIN 12/01/2015 04:00 0.00
RAIN 12/01/2015 05:00 0.00
RAIN 12/01/2015 06:00 7.00
RAIN 12/01/2015 07:00 10.00
RAIN 12/01/2015 08:00 2.00
RAIN 12/01/2015 09:00 13.00
RAIN 12/01/2015 10:00 31.10
RAIN 12/01/2015 11:00 8.00
RAIN 12/01/2015 12:00 9.00
RAIN 12/01/2015 13:00 16.10
RAIN 12/01/2015 14:00 9.00
RAIN 12/01/2015 15:00 9.00
RAIN 12/01/2015 16:00 17.10
RAIN 12/01/2015 17:00 4.00
RAIN 12/01/2015 18:00 34.10
RAIN 12/01/2015 19:00 24.10
RAIN 12/01/2015 20:00 12.00
RAIN 12/01/2015 21:00 20.10
RAIN 12/01/2015 22:00 17.10
RAIN 12/01/2015 23:00 10.00
RAIN 12/02/2015 00:00 21.10
RAIN 12/02/2015 01:00 16.10
RAIN 12/02/2015 02:00 10.00
RAIN 12/02/2015 03:00 7.00
RAIN 12/02/2015 04:00 2.00
RAIN 12/02/2015 05:00 2.00
RAIN 12/02/2015 06:00 1.00
RAIN 12/02/2015 07:00 0.00
RAIN 12/02/2015 08:00 1.00
RAIN 12/02/2015 09:00 0.00
RAIN 12/02/2015 10:00 1.00
RAIN 12/02/2015 11:00 0.00
RAIN 12/02/2015 12:00 0.00
RAIN 12/02/2015 13:00 0.00
RAIN 12/02/2015 14:00 3.00
RAIN 12/02/2015 15:00 3.00
RAIN 12/02/2015 16:00 3.00
RAIN 12/02/2015 17:00 2.00
RAIN 12/02/2015 18:00 1.00
RAIN 12/02/2015 19:00 0.00
RAIN 12/02/2015 20:00 0.00
RAIN 12/02/2015 21:00 0.00
RAIN 12/02/2015 22:00 0.00
RAIN 12/02/2015 23:00 0.00
[REPORT]
NODES ALL
LINKS ALL
